Maximize
  - 2.270152120379 edge_0_1_0_0 - 2.3253424975488 edge_0_2_0_0
   - 0.6506660487637199 edge_0_3_0_0 - 3.460269758088 edge_0_4_0_0
   - 3.95353984631 edge_0_5_0_0 - 4.9253164766424 edge_0_6_0_0
   - 2.9001441831026 edge_0_7_0_0 - 4.0212716558526 edge_0_10_0_0
   - 3.955783161433 edge_0_13_0_0 - 3.9533697627978 edge_0_14_0_0
   - 1.8893566405116 edge_0_15_0_0 - 2.7358894685358 edge_0_16_0_0
   - 1.388282245897 edge_0_18_0_0 - 0.1178581687405796 edge_1_2_0_0
   + 0.0294032746006499 edge_1_3_0_0 - 0.2322193490883794 edge_1_4_0_0
   - 0.5247717044543533 edge_1_5_0_0 - 0.0816292870547485 edge_1_6_0_0
   - 0.4311362621331619 edge_1_7_0_0 - 0.5777765044580333 edge_1_10_0_0
   - 0.118674500827519 edge_1_12_0_0 - 0.8306859831605246 edge_1_15_0_0
   - 0.3974979305999181 edge_1_18_0_0 - 0.2401480973049227 edge_1_19_0_0
   + 0.1281761396813421 edge_2_1_0_0 + 0.1667683343145322 edge_2_2_0_0
   + 1.067538985532785 edge_2_3_0_0 + 0.2662307188121443 edge_2_4_0_0
   + 0.3890377271882474 edge_2_5_0_0 + 0.6115464140333686 edge_2_6_0_0
   + 0.5027115366849639 edge_2_7_0_0 + 0.1134999964579537 edge_2_10_0_0
   + 0.00741999205585285 edge_2_12_0_0 + 0.00619424335979891 edge_2_13_0_0
   - 0.2195749915140197 edge_2_14_0_0 - 0.2857961416232957 edge_2_15_0_0
   - 0.5194219703783393 edge_2_16_0_0 - 0.9198528457908708 edge_2_17_0_0
   - 0.4448908633483435 edge_2_18_0_0 + 0.2448061917973664 edge_2_19_0_0
   + 1.34971139146232 edge_3_1_0_0 + 3.268779644881812 edge_3_2_0_0
   + 2.420464781516767 edge_3_4_0_0 + 2.293919869435844 edge_3_5_0_0
   + 2.588730251007757 edge_3_6_0_0 + 1.646065193478681 edge_3_7_0_0
   + 0.0569744212973901 edge_3_9_0_0 + 2.608587777037155 edge_3_10_0_0
   + 1.171280466279436 edge_3_12_0_0 + 0.3286920898707088 edge_3_13_0_0
   + 1.262294491496815 edge_3_14_0_0 + 0.4190112584585505 edge_3_15_0_0
   + 0.8873129504534152 edge_3_16_0_0 + 0.2707638000631707 edge_3_17_0_0
   + 1.310275432506051 edge_3_18_0_0 + 3.74787130106133 edge_3_19_0_0
   + 0.2391621412198034 edge_4_1_0_0 - 0.1198868592541547 edge_4_2_0_0
   + 0.1098083465640211 edge_4_3_0_0 + 0.8407113806218706 edge_4_5_0_0
   + 0.7023053804030984 edge_4_6_0_0 + 1.040867395439135 edge_4_7_0_0
   - 0.1623181369497957 edge_4_10_0_0 + 0.1283973265828828 edge_4_12_0_0
   - 0.6783471428792929 edge_4_14_0_0 - 0.6088253830913387 edge_4_15_0_0
   - 0.9124912110228471 edge_4_16_0_0 + 0.0632443558061155 edge_4_18_0_0
   + 0.3802822077336181 edge_4_19_0_0 + 0.230916728279958 edge_5_1_0_0
   + 0.4294429721397982 edge_5_2_0_0 + 0.8275661841747055 edge_5_3_0_0
   + 3.183945643463809 edge_5_4_0_0 + 1.026274547108869 edge_5_6_0_0
   + 0.245837716954897 edge_5_7_0_0 - 0.4115221765443801 edge_5_10_0_0
   - 0.0291459228068238 edge_5_12_0_0 + 0.0991775572489578 edge_5_14_0_0
   - 0.3422879195327714 edge_5_15_0_0 - 0.2469452760392735 edge_5_16_0_0
   - 0.6598944768065738 edge_5_17_0_0 + 0.3442401882523325 edge_5_18_0_0
   + 0.3188410798532686 edge_5_19_0_0 - 0.2897707066943045 edge_6_3_0_0
   - 0.6638809819516978 edge_6_4_0_0 - 0.1894610807148204 edge_6_5_0_0
   - 0.2494794601929913 edge_6_7_0_0 + 0.0845447782932343 edge_7_1_0_0
   + 0.6721130090307997 edge_7_2_0_0 + 0.757772465616797 edge_7_3_0_0
   + 2.102342169279542 edge_7_4_0_0 + 1.110113580806096 edge_7_5_0_0
   + 1.492947279257237 edge_7_6_0_0 + 0.4543848865010873 edge_7_9_0_0
   + 3.282490007805628 edge_7_10_0_0 + 1.25823788932087 edge_7_12_0_0
   + 1.850875262191212 edge_7_13_0_0 + 2.533601233709917 edge_7_14_0_0
   + 0.7095512172799289 edge_7_15_0_0 + 1.779715205985226 edge_7_16_0_0
   + 1.081109025095517 edge_7_17_0_0 + 1.665384295840816 edge_7_18_0_0
   + 3.243517364315766 edge_7_19_0_0 + 0.0684417625211523 edge_9_4_0_0
   - 0.0191288006001908 edge_9_6_0_0 - 0.3883247490021915 edge_9_7_0_0
   + 0.1227631950984184 edge_9_10_0_0 - 0.397875131851103 edge_9_15_0_0
   - 0.2394129518352066 edge_9_16_0_0 - 0.6386089538321036 edge_9_18_0_0
   + 0.096725538950822 edge_10_1_0_0 - 0.0466639348023903 edge_10_2_0_0
   + 0.1928259552324998 edge_10_3_0_0 + 0.0368514498653629 edge_10_4_0_0
   + 0.074403686346966 edge_10_5_0_0 + 1.586558554575791 edge_10_6_0_0
   + 1.650841784125277 edge_10_7_0_0 + 1.965195578149204 edge_10_9_0_0
   + 0.3430277501320367 edge_10_12_0_0 + 0.5263518842466187 edge_10_13_0_0
   + 0.8653673773086342 edge_10_14_0_0 + 0.148703667278798 edge_10_15_0_0
   - 0.2381619816300645 edge_10_16_0_0 + 0.0280766503569274 edge_10_17_0_0
   + 0.8371108540759303 edge_10_18_0_0 + 0.8899501195805689 edge_10_19_0_0
   - 1.139410895028207 edge_12_10_0_0 - 0.3074654428095981 edge_12_15_0_0
   - 0.4308493905250845 edge_12_16_0_0 - 0.1736258280678417 edge_12_18_0_0
   - 0.0489173814878605 edge_13_2_0_0 - 0.8673240076293059 edge_13_3_0_0
   - 0.0583547425272317 edge_13_6_0_0 + 0.1769836750994687 edge_13_7_0_0
   + 0.5196085154622805 edge_13_10_0_0 + 1.508034276300038 edge_13_14_0_0
   + 0.2065568146857178 edge_13_15_0_0 + 0.2287671227946683 edge_13_16_0_0
   - 0.501240946997036 edge_13_17_0_0 - 0.7911778451795846 edge_13_18_0_0
   - 0.1758467947611794 edge_13_19_0_0 + 0.3953648375487884 edge_14_2_0_0
   + 0.7149993630764157 edge_14_3_0_0 - 0.5756064243988931 edge_14_4_0_0
   + 0.0151350101085392 edge_14_5_0_0 + 0.3180550795161541 edge_14_6_0_0
   + 1.214244528473614 edge_14_7_0_0 + 1.758442203827861 edge_14_10_0_0
   + 2.552511942430975 edge_14_13_0_0 + 2.714364318031071 edge_14_15_0_0
   + 1.823300443822467 edge_14_16_0_0 + 0.4553017433271663 edge_14_17_0_0
   + 2.031035430365543 edge_14_18_0_0 + 2.816678384460187 edge_14_19_0_0
   - 0.263332233676234 edge_15_2_0_0 - 0.0914722941131895 edge_15_3_0_0
   - 0.2931016801047766 edge_15_4_0_0 + 0.1210501773409597 edge_15_6_0_0
   + 0.424475661369018 edge_15_7_0_0 - 0.2835712531074499 edge_15_9_0_0
   - 0.0350310680001609 edge_15_10_0_0 - 0.1540521714500163 edge_15_12_0_0
   - 0.3534753765916537 edge_15_13_0_0 - 0.7012858300017977 edge_15_14_0_0
   + 0.69783702882405 edge_15_16_0_0 + 0.3935212013488068 edge_15_17_0_0
   + 1.196656937936041 edge_15_18_0_0 - 0.0888943254100096 edge_15_19_0_0
   - 0.2938780752349219 edge_16_1_0_0 - 0.0157284371137522 edge_16_2_0_0
   - 0.2484299638665571 edge_16_3_0_0 + 0.3155695857210707 edge_16_4_0_0
   + 0.042977610675638 edge_16_5_0_0 + 0.1649185481594521 edge_16_6_0_0
   + 0.2700206321100015 edge_16_7_0_0 - 0.0981729517361927 edge_16_9_0_0
   + 0.493857808894015 edge_16_10_0_0 - 0.0114983910061862 edge_16_12_0_0
   + 0.8267310501745961 edge_16_13_0_0 + 1.018247370466205 edge_16_14_0_0
   + 1.480749868260909 edge_16_15_0_0 + 0.5829399834785706 edge_16_17_0_0
   + 0.5837557147243881 edge_16_18_0_0 + 0.4938653122507738 edge_16_19_0_0
   - 1.382039185107854 edge_17_14_0_0 + 0.3479929512138506 edge_17_15_0_0
   + 0.2901304026833078 edge_17_16_0_0 + 0.7634174128899804 edge_17_18_0_0
   + 0.0487789514986969 edge_17_19_0_0 + 0.7055799531862703 edge_18_1_0_0
   + 0.2482307035040917 edge_18_2_0_0 + 0.3319120666811151 edge_18_3_0_0
   - 0.0942224120075419 edge_18_4_0_0 + 0.64782193444755 edge_18_5_0_0
   + 0.5604178011667765 edge_18_6_0_0 + 0.7425186896150348 edge_18_7_0_0
   + 0.0916258690207946 edge_18_9_0_0 + 1.085028669980873 edge_18_10_0_0
   + 1.304987918688339 edge_18_12_0_0 + 0.7200624965824485 edge_18_13_0_0
   + 1.604339541047026 edge_18_14_0_0 + 3.582975107601503 edge_18_15_0_0
   + 3.070416076750756 edge_18_16_0_0 + 4.036785097788062 edge_18_17_0_0
   + 2.404808704672666 edge_18_19_0_0 - 1.123058872901072 edge_19_18_0_0
Subject To
 one_parent_1: edge_0_1_0_0 + edge_2_1_0_0 + edge_3_1_0_0 + edge_4_1_0_0
   + edge_5_1_0_0 + edge_7_1_0_0 + edge_10_1_0_0 + edge_16_1_0_0
   + edge_18_1_0_0 = 1
 consume_one_flow_unit_1: flow_0_1_0_0 - flow_1_2_0_0 - flow_1_3_0_0
   - flow_1_4_0_0 - flow_1_5_0_0 - flow_1_6_0_0 - flow_1_7_0_0
   - flow_1_10_0_0 - flow_1_12_0_0 - flow_1_15_0_0 - flow_1_18_0_0
   - flow_1_19_0_0 + flow_2_1_0_0 + flow_3_1_0_0 + flow_4_1_0_0
   + flow_5_1_0_0 + flow_7_1_0_0 + flow_10_1_0_0 + flow_16_1_0_0
   + flow_18_1_0_0 = 1
 one_parent_2: edge_0_2_0_0 + edge_1_2_0_0 + edge_2_2_0_0 + edge_3_2_0_0
   + edge_4_2_0_0 + edge_5_2_0_0 + edge_7_2_0_0 + edge_10_2_0_0
   + edge_13_2_0_0 + edge_14_2_0_0 + edge_15_2_0_0 + edge_16_2_0_0
   + edge_18_2_0_0 = 1
 consume_one_flow_unit_2: flow_0_2_0_0 + flow_1_2_0_0 - flow_2_1_0_0
   - flow_2_3_0_0 - flow_2_4_0_0 - flow_2_5_0_0 - flow_2_6_0_0
   - flow_2_7_0_0 - flow_2_10_0_0 - flow_2_12_0_0 - flow_2_13_0_0
   - flow_2_14_0_0 - flow_2_15_0_0 - flow_2_16_0_0 - flow_2_17_0_0
   - flow_2_18_0_0 - flow_2_19_0_0 + flow_3_2_0_0 + flow_4_2_0_0
   + flow_5_2_0_0 + flow_7_2_0_0 + flow_10_2_0_0 + flow_13_2_0_0
   + flow_14_2_0_0 + flow_15_2_0_0 + flow_16_2_0_0 + flow_18_2_0_0 = 1
 one_parent_3: edge_0_3_0_0 + edge_1_3_0_0 + edge_2_3_0_0 + edge_4_3_0_0
   + edge_5_3_0_0 + edge_6_3_0_0 + edge_7_3_0_0 + edge_10_3_0_0
   + edge_13_3_0_0 + edge_14_3_0_0 + edge_15_3_0_0 + edge_16_3_0_0
   + edge_18_3_0_0 = 1
 consume_one_flow_unit_3: flow_0_3_0_0 + flow_1_3_0_0 + flow_2_3_0_0
   - flow_3_1_0_0 - flow_3_2_0_0 - flow_3_4_0_0 - flow_3_5_0_0
   - flow_3_6_0_0 - flow_3_7_0_0 - flow_3_9_0_0 - flow_3_10_0_0
   - flow_3_12_0_0 - flow_3_13_0_0 - flow_3_14_0_0 - flow_3_15_0_0
   - flow_3_16_0_0 - flow_3_17_0_0 - flow_3_18_0_0 - flow_3_19_0_0
   + flow_4_3_0_0 + flow_5_3_0_0 + flow_6_3_0_0 + flow_7_3_0_0
   + flow_10_3_0_0 + flow_13_3_0_0 + flow_14_3_0_0 + flow_15_3_0_0
   + flow_16_3_0_0 + flow_18_3_0_0 = 1
 one_parent_4: edge_0_4_0_0 + edge_1_4_0_0 + edge_2_4_0_0 + edge_3_4_0_0
   + edge_5_4_0_0 + edge_6_4_0_0 + edge_7_4_0_0 + edge_9_4_0_0
   + edge_10_4_0_0 + edge_14_4_0_0 + edge_15_4_0_0 + edge_16_4_0_0
   + edge_18_4_0_0 = 1
 consume_one_flow_unit_4: flow_0_4_0_0 + flow_1_4_0_0 + flow_2_4_0_0
   + flow_3_4_0_0 - flow_4_1_0_0 - flow_4_2_0_0 - flow_4_3_0_0
   - flow_4_5_0_0 - flow_4_6_0_0 - flow_4_7_0_0 - flow_4_10_0_0
   - flow_4_12_0_0 - flow_4_14_0_0 - flow_4_15_0_0 - flow_4_16_0_0
   - flow_4_18_0_0 - flow_4_19_0_0 + flow_5_4_0_0 + flow_6_4_0_0
   + flow_7_4_0_0 + flow_9_4_0_0 + flow_10_4_0_0 + flow_14_4_0_0
   + flow_15_4_0_0 + flow_16_4_0_0 + flow_18_4_0_0 = 1
 one_parent_5: edge_0_5_0_0 + edge_1_5_0_0 + edge_2_5_0_0 + edge_3_5_0_0
   + edge_4_5_0_0 + edge_6_5_0_0 + edge_7_5_0_0 + edge_10_5_0_0
   + edge_14_5_0_0 + edge_16_5_0_0 + edge_18_5_0_0 = 1
 consume_one_flow_unit_5: flow_0_5_0_0 + flow_1_5_0_0 + flow_2_5_0_0
   + flow_3_5_0_0 + flow_4_5_0_0 - flow_5_1_0_0 - flow_5_2_0_0
   - flow_5_3_0_0 - flow_5_4_0_0 - flow_5_6_0_0 - flow_5_7_0_0
   - flow_5_10_0_0 - flow_5_12_0_0 - flow_5_14_0_0 - flow_5_15_0_0
   - flow_5_16_0_0 - flow_5_17_0_0 - flow_5_18_0_0 - flow_5_19_0_0
   + flow_6_5_0_0 + flow_7_5_0_0 + flow_10_5_0_0 + flow_14_5_0_0
   + flow_16_5_0_0 + flow_18_5_0_0 = 1
 one_parent_6: edge_0_6_0_0 + edge_1_6_0_0 + edge_2_6_0_0 + edge_3_6_0_0
   + edge_4_6_0_0 + edge_5_6_0_0 + edge_7_6_0_0 + edge_9_6_0_0
   + edge_10_6_0_0 + edge_13_6_0_0 + edge_14_6_0_0 + edge_15_6_0_0
   + edge_16_6_0_0 + edge_18_6_0_0 = 1
 consume_one_flow_unit_6: flow_0_6_0_0 + flow_1_6_0_0 + flow_2_6_0_0
   + flow_3_6_0_0 + flow_4_6_0_0 + flow_5_6_0_0 - flow_6_3_0_0
   - flow_6_4_0_0 - flow_6_5_0_0 - flow_6_7_0_0 + flow_7_6_0_0
   + flow_9_6_0_0 + flow_10_6_0_0 + flow_13_6_0_0 + flow_14_6_0_0
   + flow_15_6_0_0 + flow_16_6_0_0 + flow_18_6_0_0 = 1
 one_parent_7: edge_0_7_0_0 + edge_1_7_0_0 + edge_2_7_0_0 + edge_3_7_0_0
   + edge_4_7_0_0 + edge_5_7_0_0 + edge_6_7_0_0 + edge_9_7_0_0
   + edge_10_7_0_0 + edge_13_7_0_0 + edge_14_7_0_0 + edge_15_7_0_0
   + edge_16_7_0_0 + edge_18_7_0_0 = 1
 consume_one_flow_unit_7: flow_0_7_0_0 + flow_1_7_0_0 + flow_2_7_0_0
   + flow_3_7_0_0 + flow_4_7_0_0 + flow_5_7_0_0 + flow_6_7_0_0
   - flow_7_1_0_0 - flow_7_2_0_0 - flow_7_3_0_0 - flow_7_4_0_0
   - flow_7_5_0_0 - flow_7_6_0_0 - flow_7_9_0_0 - flow_7_10_0_0
   - flow_7_12_0_0 - flow_7_13_0_0 - flow_7_14_0_0 - flow_7_15_0_0
   - flow_7_16_0_0 - flow_7_17_0_0 - flow_7_18_0_0 - flow_7_19_0_0
   + flow_9_7_0_0 + flow_10_7_0_0 + flow_13_7_0_0 + flow_14_7_0_0
   + flow_15_7_0_0 + flow_16_7_0_0 + flow_18_7_0_0 = 1
 one_parent_8: = 1
 consume_one_flow_unit_8: = 1
 one_parent_9: edge_3_9_0_0 + edge_7_9_0_0 + edge_10_9_0_0 + edge_15_9_0_0
   + edge_16_9_0_0 + edge_18_9_0_0 = 1
 consume_one_flow_unit_9: flow_3_9_0_0 + flow_7_9_0_0 - flow_9_4_0_0
   - flow_9_6_0_0 - flow_9_7_0_0 - flow_9_10_0_0 - flow_9_15_0_0
   - flow_9_16_0_0 - flow_9_18_0_0 + flow_10_9_0_0 + flow_15_9_0_0
   + flow_16_9_0_0 + flow_18_9_0_0 = 1
 one_parent_10: edge_0_10_0_0 + edge_1_10_0_0 + edge_2_10_0_0
   + edge_3_10_0_0 + edge_4_10_0_0 + edge_5_10_0_0 + edge_7_10_0_0
   + edge_9_10_0_0 + edge_12_10_0_0 + edge_13_10_0_0 + edge_14_10_0_0
   + edge_15_10_0_0 + edge_16_10_0_0 + edge_18_10_0_0 = 1
 consume_one_flow_unit_10: flow_0_10_0_0 + flow_1_10_0_0 + flow_2_10_0_0
   + flow_3_10_0_0 + flow_4_10_0_0 + flow_5_10_0_0 + flow_7_10_0_0
   + flow_9_10_0_0 - flow_10_1_0_0 - flow_10_2_0_0 - flow_10_3_0_0
   - flow_10_4_0_0 - flow_10_5_0_0 - flow_10_6_0_0 - flow_10_7_0_0
   - flow_10_9_0_0 - flow_10_12_0_0 - flow_10_13_0_0 - flow_10_14_0_0
   - flow_10_15_0_0 - flow_10_16_0_0 - flow_10_17_0_0 - flow_10_18_0_0
   - flow_10_19_0_0 + flow_12_10_0_0 + flow_13_10_0_0 + flow_14_10_0_0
   + flow_15_10_0_0 + flow_16_10_0_0 + flow_18_10_0_0 = 1
 one_parent_11: = 1
 consume_one_flow_unit_11: = 1
 one_parent_12: edge_1_12_0_0 + edge_2_12_0_0 + edge_3_12_0_0
   + edge_4_12_0_0 + edge_5_12_0_0 + edge_7_12_0_0 + edge_10_12_0_0
   + edge_15_12_0_0 + edge_16_12_0_0 + edge_18_12_0_0 = 1
 consume_one_flow_unit_12: flow_1_12_0_0 + flow_2_12_0_0 + flow_3_12_0_0
   + flow_4_12_0_0 + flow_5_12_0_0 + flow_7_12_0_0 + flow_10_12_0_0
   - flow_12_10_0_0 - flow_12_15_0_0 - flow_12_16_0_0 - flow_12_18_0_0
   + flow_15_12_0_0 + flow_16_12_0_0 + flow_18_12_0_0 = 1
 one_parent_13: edge_0_13_0_0 + edge_2_13_0_0 + edge_3_13_0_0
   + edge_7_13_0_0 + edge_10_13_0_0 + edge_14_13_0_0 + edge_15_13_0_0
   + edge_16_13_0_0 + edge_18_13_0_0 = 1
 consume_one_flow_unit_13: flow_0_13_0_0 + flow_2_13_0_0 + flow_3_13_0_0
   + flow_7_13_0_0 + flow_10_13_0_0 - flow_13_2_0_0 - flow_13_3_0_0
   - flow_13_6_0_0 - flow_13_7_0_0 - flow_13_10_0_0 - flow_13_14_0_0
   - flow_13_15_0_0 - flow_13_16_0_0 - flow_13_17_0_0 - flow_13_18_0_0
   - flow_13_19_0_0 + flow_14_13_0_0 + flow_15_13_0_0 + flow_16_13_0_0
   + flow_18_13_0_0 = 1
 one_parent_14: edge_0_14_0_0 + edge_2_14_0_0 + edge_3_14_0_0
   + edge_4_14_0_0 + edge_5_14_0_0 + edge_7_14_0_0 + edge_10_14_0_0
   + edge_13_14_0_0 + edge_15_14_0_0 + edge_16_14_0_0 + edge_17_14_0_0
   + edge_18_14_0_0 = 1
 consume_one_flow_unit_14: flow_0_14_0_0 + flow_2_14_0_0 + flow_3_14_0_0
   + flow_4_14_0_0 + flow_5_14_0_0 + flow_7_14_0_0 + flow_10_14_0_0
   + flow_13_14_0_0 - flow_14_2_0_0 - flow_14_3_0_0 - flow_14_4_0_0
   - flow_14_5_0_0 - flow_14_6_0_0 - flow_14_7_0_0 - flow_14_10_0_0
   - flow_14_13_0_0 - flow_14_15_0_0 - flow_14_16_0_0 - flow_14_17_0_0
   - flow_14_18_0_0 - flow_14_19_0_0 + flow_15_14_0_0 + flow_16_14_0_0
   + flow_17_14_0_0 + flow_18_14_0_0 = 1
 one_parent_15: edge_0_15_0_0 + edge_1_15_0_0 + edge_2_15_0_0
   + edge_3_15_0_0 + edge_4_15_0_0 + edge_5_15_0_0 + edge_7_15_0_0
   + edge_9_15_0_0 + edge_10_15_0_0 + edge_12_15_0_0 + edge_13_15_0_0
   + edge_14_15_0_0 + edge_16_15_0_0 + edge_17_15_0_0 + edge_18_15_0_0 = 1
 consume_one_flow_unit_15: flow_0_15_0_0 + flow_1_15_0_0 + flow_2_15_0_0
   + flow_3_15_0_0 + flow_4_15_0_0 + flow_5_15_0_0 + flow_7_15_0_0
   + flow_9_15_0_0 + flow_10_15_0_0 + flow_12_15_0_0 + flow_13_15_0_0
   + flow_14_15_0_0 - flow_15_2_0_0 - flow_15_3_0_0 - flow_15_4_0_0
   - flow_15_6_0_0 - flow_15_7_0_0 - flow_15_9_0_0 - flow_15_10_0_0
   - flow_15_12_0_0 - flow_15_13_0_0 - flow_15_14_0_0 - flow_15_16_0_0
   - flow_15_17_0_0 - flow_15_18_0_0 - flow_15_19_0_0 + flow_16_15_0_0
   + flow_17_15_0_0 + flow_18_15_0_0 = 1
 one_parent_16: edge_0_16_0_0 + edge_2_16_0_0 + edge_3_16_0_0
   + edge_4_16_0_0 + edge_5_16_0_0 + edge_7_16_0_0 + edge_9_16_0_0
   + edge_10_16_0_0 + edge_12_16_0_0 + edge_13_16_0_0 + edge_14_16_0_0
   + edge_15_16_0_0 + edge_17_16_0_0 + edge_18_16_0_0 = 1
 consume_one_flow_unit_16: flow_0_16_0_0 + flow_2_16_0_0 + flow_3_16_0_0
   + flow_4_16_0_0 + flow_5_16_0_0 + flow_7_16_0_0 + flow_9_16_0_0
   + flow_10_16_0_0 + flow_12_16_0_0 + flow_13_16_0_0 + flow_14_16_0_0
   + flow_15_16_0_0 - flow_16_1_0_0 - flow_16_2_0_0 - flow_16_3_0_0
   - flow_16_4_0_0 - flow_16_5_0_0 - flow_16_6_0_0 - flow_16_7_0_0
   - flow_16_9_0_0 - flow_16_10_0_0 - flow_16_12_0_0 - flow_16_13_0_0
   - flow_16_14_0_0 - flow_16_15_0_0 - flow_16_17_0_0 - flow_16_18_0_0
   - flow_16_19_0_0 + flow_17_16_0_0 + flow_18_16_0_0 = 1
 one_parent_17: edge_2_17_0_0 + edge_3_17_0_0 + edge_5_17_0_0
   + edge_7_17_0_0 + edge_10_17_0_0 + edge_13_17_0_0 + edge_14_17_0_0
   + edge_15_17_0_0 + edge_16_17_0_0 + edge_18_17_0_0 = 1
 consume_one_flow_unit_17: flow_2_17_0_0 + flow_3_17_0_0 + flow_5_17_0_0
   + flow_7_17_0_0 + flow_10_17_0_0 + flow_13_17_0_0 + flow_14_17_0_0
   + flow_15_17_0_0 + flow_16_17_0_0 - flow_17_14_0_0 - flow_17_15_0_0
   - flow_17_16_0_0 - flow_17_18_0_0 - flow_17_19_0_0 + flow_18_17_0_0 = 1
 one_parent_18: edge_0_18_0_0 + edge_1_18_0_0 + edge_2_18_0_0
   + edge_3_18_0_0 + edge_4_18_0_0 + edge_5_18_0_0 + edge_7_18_0_0
   + edge_9_18_0_0 + edge_10_18_0_0 + edge_12_18_0_0 + edge_13_18_0_0
   + edge_14_18_0_0 + edge_15_18_0_0 + edge_16_18_0_0 + edge_17_18_0_0
   + edge_19_18_0_0 = 1
 consume_one_flow_unit_18: flow_0_18_0_0 + flow_1_18_0_0 + flow_2_18_0_0
   + flow_3_18_0_0 + flow_4_18_0_0 + flow_5_18_0_0 + flow_7_18_0_0
   + flow_9_18_0_0 + flow_10_18_0_0 + flow_12_18_0_0 + flow_13_18_0_0
   + flow_14_18_0_0 + flow_15_18_0_0 + flow_16_18_0_0 + flow_17_18_0_0
   - flow_18_1_0_0 - flow_18_2_0_0 - flow_18_3_0_0 - flow_18_4_0_0
   - flow_18_5_0_0 - flow_18_6_0_0 - flow_18_7_0_0 - flow_18_9_0_0
   - flow_18_10_0_0 - flow_18_12_0_0 - flow_18_13_0_0 - flow_18_14_0_0
   - flow_18_15_0_0 - flow_18_16_0_0 - flow_18_17_0_0 - flow_18_19_0_0
   + flow_19_18_0_0 = 1
 one_parent_19: edge_1_19_0_0 + edge_2_19_0_0 + edge_3_19_0_0
   + edge_4_19_0_0 + edge_5_19_0_0 + edge_7_19_0_0 + edge_10_19_0_0
   + edge_13_19_0_0 + edge_14_19_0_0 + edge_15_19_0_0 + edge_16_19_0_0
   + edge_17_19_0_0 + edge_18_19_0_0 = 1
 consume_one_flow_unit_19: flow_1_19_0_0 + flow_2_19_0_0 + flow_3_19_0_0
   + flow_4_19_0_0 + flow_5_19_0_0 + flow_7_19_0_0 + flow_10_19_0_0
   + flow_13_19_0_0 + flow_14_19_0_0 + flow_15_19_0_0 + flow_16_19_0_0
   + flow_17_19_0_0 + flow_18_19_0_0 - flow_19_18_0_0 = 1
 root_flow: flow_0_1_0_0 + flow_0_2_0_0 + flow_0_3_0_0 + flow_0_4_0_0
   + flow_0_5_0_0 + flow_0_6_0_0 + flow_0_7_0_0 + flow_0_10_0_0
   + flow_0_13_0_0 + flow_0_14_0_0 + flow_0_15_0_0 + flow_0_16_0_0
   + flow_0_18_0_0 = 19
 inactive_no_flow_0_1_0_0: flow_0_1_0_0 - 1000 edge_0_1_0_0 <= 0
 inactive_no_flow_0_2_0_0: flow_0_2_0_0 - 1000 edge_0_2_0_0 <= 0
 inactive_no_flow_0_3_0_0: flow_0_3_0_0 - 1000 edge_0_3_0_0 <= 0
 inactive_no_flow_0_4_0_0: flow_0_4_0_0 - 1000 edge_0_4_0_0 <= 0
 inactive_no_flow_0_5_0_0: flow_0_5_0_0 - 1000 edge_0_5_0_0 <= 0
 inactive_no_flow_0_6_0_0: flow_0_6_0_0 - 1000 edge_0_6_0_0 <= 0
 inactive_no_flow_0_7_0_0: flow_0_7_0_0 - 1000 edge_0_7_0_0 <= 0
 inactive_no_flow_0_10_0_0: flow_0_10_0_0 - 1000 edge_0_10_0_0 <= 0
 inactive_no_flow_0_13_0_0: flow_0_13_0_0 - 1000 edge_0_13_0_0 <= 0
 inactive_no_flow_0_14_0_0: flow_0_14_0_0 - 1000 edge_0_14_0_0 <= 0
 inactive_no_flow_0_15_0_0: flow_0_15_0_0 - 1000 edge_0_15_0_0 <= 0
 inactive_no_flow_0_16_0_0: flow_0_16_0_0 - 1000 edge_0_16_0_0 <= 0
 inactive_no_flow_0_18_0_0: flow_0_18_0_0 - 1000 edge_0_18_0_0 <= 0
 inactive_no_flow_1_2_0_0: flow_1_2_0_0 - 1000 edge_1_2_0_0 <= 0
 inactive_no_flow_1_3_0_0: flow_1_3_0_0 - 1000 edge_1_3_0_0 <= 0
 inactive_no_flow_1_4_0_0: flow_1_4_0_0 - 1000 edge_1_4_0_0 <= 0
 inactive_no_flow_1_5_0_0: flow_1_5_0_0 - 1000 edge_1_5_0_0 <= 0
 inactive_no_flow_1_6_0_0: flow_1_6_0_0 - 1000 edge_1_6_0_0 <= 0
 inactive_no_flow_1_7_0_0: flow_1_7_0_0 - 1000 edge_1_7_0_0 <= 0
 inactive_no_flow_1_10_0_0: flow_1_10_0_0 - 1000 edge_1_10_0_0 <= 0
 inactive_no_flow_1_12_0_0: flow_1_12_0_0 - 1000 edge_1_12_0_0 <= 0
 inactive_no_flow_1_15_0_0: flow_1_15_0_0 - 1000 edge_1_15_0_0 <= 0
 inactive_no_flow_1_18_0_0: flow_1_18_0_0 - 1000 edge_1_18_0_0 <= 0
 inactive_no_flow_1_19_0_0: flow_1_19_0_0 - 1000 edge_1_19_0_0 <= 0
 inactive_no_flow_2_1_0_0: flow_2_1_0_0 - 1000 edge_2_1_0_0 <= 0
 inactive_no_flow_2_2_0_0: flow_2_2_0_0 - 1000 edge_2_2_0_0 <= 0
 inactive_no_flow_2_3_0_0: flow_2_3_0_0 - 1000 edge_2_3_0_0 <= 0
 inactive_no_flow_2_4_0_0: flow_2_4_0_0 - 1000 edge_2_4_0_0 <= 0
 inactive_no_flow_2_5_0_0: flow_2_5_0_0 - 1000 edge_2_5_0_0 <= 0
 inactive_no_flow_2_6_0_0: flow_2_6_0_0 - 1000 edge_2_6_0_0 <= 0
 inactive_no_flow_2_7_0_0: flow_2_7_0_0 - 1000 edge_2_7_0_0 <= 0
 inactive_no_flow_2_10_0_0: flow_2_10_0_0 - 1000 edge_2_10_0_0 <= 0
 inactive_no_flow_2_12_0_0: flow_2_12_0_0 - 1000 edge_2_12_0_0 <= 0
 inactive_no_flow_2_13_0_0: flow_2_13_0_0 - 1000 edge_2_13_0_0 <= 0
 inactive_no_flow_2_14_0_0: flow_2_14_0_0 - 1000 edge_2_14_0_0 <= 0
 inactive_no_flow_2_15_0_0: flow_2_15_0_0 - 1000 edge_2_15_0_0 <= 0
 inactive_no_flow_2_16_0_0: flow_2_16_0_0 - 1000 edge_2_16_0_0 <= 0
 inactive_no_flow_2_17_0_0: flow_2_17_0_0 - 1000 edge_2_17_0_0 <= 0
 inactive_no_flow_2_18_0_0: flow_2_18_0_0 - 1000 edge_2_18_0_0 <= 0
 inactive_no_flow_2_19_0_0: flow_2_19_0_0 - 1000 edge_2_19_0_0 <= 0
 inactive_no_flow_3_1_0_0: flow_3_1_0_0 - 1000 edge_3_1_0_0 <= 0
 inactive_no_flow_3_2_0_0: flow_3_2_0_0 - 1000 edge_3_2_0_0 <= 0
 inactive_no_flow_3_4_0_0: flow_3_4_0_0 - 1000 edge_3_4_0_0 <= 0
 inactive_no_flow_3_5_0_0: flow_3_5_0_0 - 1000 edge_3_5_0_0 <= 0
 inactive_no_flow_3_6_0_0: flow_3_6_0_0 - 1000 edge_3_6_0_0 <= 0
 inactive_no_flow_3_7_0_0: flow_3_7_0_0 - 1000 edge_3_7_0_0 <= 0
 inactive_no_flow_3_9_0_0: flow_3_9_0_0 - 1000 edge_3_9_0_0 <= 0
 inactive_no_flow_3_10_0_0: flow_3_10_0_0 - 1000 edge_3_10_0_0 <= 0
 inactive_no_flow_3_12_0_0: flow_3_12_0_0 - 1000 edge_3_12_0_0 <= 0
 inactive_no_flow_3_13_0_0: flow_3_13_0_0 - 1000 edge_3_13_0_0 <= 0
 inactive_no_flow_3_14_0_0: flow_3_14_0_0 - 1000 edge_3_14_0_0 <= 0
 inactive_no_flow_3_15_0_0: flow_3_15_0_0 - 1000 edge_3_15_0_0 <= 0
 inactive_no_flow_3_16_0_0: flow_3_16_0_0 - 1000 edge_3_16_0_0 <= 0
 inactive_no_flow_3_17_0_0: flow_3_17_0_0 - 1000 edge_3_17_0_0 <= 0
 inactive_no_flow_3_18_0_0: flow_3_18_0_0 - 1000 edge_3_18_0_0 <= 0
 inactive_no_flow_3_19_0_0: flow_3_19_0_0 - 1000 edge_3_19_0_0 <= 0
 inactive_no_flow_4_1_0_0: flow_4_1_0_0 - 1000 edge_4_1_0_0 <= 0
 inactive_no_flow_4_2_0_0: flow_4_2_0_0 - 1000 edge_4_2_0_0 <= 0
 inactive_no_flow_4_3_0_0: flow_4_3_0_0 - 1000 edge_4_3_0_0 <= 0
 inactive_no_flow_4_5_0_0: flow_4_5_0_0 - 1000 edge_4_5_0_0 <= 0
 inactive_no_flow_4_6_0_0: flow_4_6_0_0 - 1000 edge_4_6_0_0 <= 0
 inactive_no_flow_4_7_0_0: flow_4_7_0_0 - 1000 edge_4_7_0_0 <= 0
 inactive_no_flow_4_10_0_0: flow_4_10_0_0 - 1000 edge_4_10_0_0 <= 0
 inactive_no_flow_4_12_0_0: flow_4_12_0_0 - 1000 edge_4_12_0_0 <= 0
 inactive_no_flow_4_14_0_0: flow_4_14_0_0 - 1000 edge_4_14_0_0 <= 0
 inactive_no_flow_4_15_0_0: flow_4_15_0_0 - 1000 edge_4_15_0_0 <= 0
 inactive_no_flow_4_16_0_0: flow_4_16_0_0 - 1000 edge_4_16_0_0 <= 0
 inactive_no_flow_4_18_0_0: flow_4_18_0_0 - 1000 edge_4_18_0_0 <= 0
 inactive_no_flow_4_19_0_0: flow_4_19_0_0 - 1000 edge_4_19_0_0 <= 0
 inactive_no_flow_5_1_0_0: flow_5_1_0_0 - 1000 edge_5_1_0_0 <= 0
 inactive_no_flow_5_2_0_0: flow_5_2_0_0 - 1000 edge_5_2_0_0 <= 0
 inactive_no_flow_5_3_0_0: flow_5_3_0_0 - 1000 edge_5_3_0_0 <= 0
 inactive_no_flow_5_4_0_0: flow_5_4_0_0 - 1000 edge_5_4_0_0 <= 0
 inactive_no_flow_5_6_0_0: flow_5_6_0_0 - 1000 edge_5_6_0_0 <= 0
 inactive_no_flow_5_7_0_0: flow_5_7_0_0 - 1000 edge_5_7_0_0 <= 0
 inactive_no_flow_5_10_0_0: flow_5_10_0_0 - 1000 edge_5_10_0_0 <= 0
 inactive_no_flow_5_12_0_0: flow_5_12_0_0 - 1000 edge_5_12_0_0 <= 0
 inactive_no_flow_5_14_0_0: flow_5_14_0_0 - 1000 edge_5_14_0_0 <= 0
 inactive_no_flow_5_15_0_0: flow_5_15_0_0 - 1000 edge_5_15_0_0 <= 0
 inactive_no_flow_5_16_0_0: flow_5_16_0_0 - 1000 edge_5_16_0_0 <= 0
 inactive_no_flow_5_17_0_0: flow_5_17_0_0 - 1000 edge_5_17_0_0 <= 0
 inactive_no_flow_5_18_0_0: flow_5_18_0_0 - 1000 edge_5_18_0_0 <= 0
 inactive_no_flow_5_19_0_0: flow_5_19_0_0 - 1000 edge_5_19_0_0 <= 0
 inactive_no_flow_6_3_0_0: flow_6_3_0_0 - 1000 edge_6_3_0_0 <= 0
 inactive_no_flow_6_4_0_0: flow_6_4_0_0 - 1000 edge_6_4_0_0 <= 0
 inactive_no_flow_6_5_0_0: flow_6_5_0_0 - 1000 edge_6_5_0_0 <= 0
 inactive_no_flow_6_7_0_0: flow_6_7_0_0 - 1000 edge_6_7_0_0 <= 0
 inactive_no_flow_7_1_0_0: flow_7_1_0_0 - 1000 edge_7_1_0_0 <= 0
 inactive_no_flow_7_2_0_0: flow_7_2_0_0 - 1000 edge_7_2_0_0 <= 0
 inactive_no_flow_7_3_0_0: flow_7_3_0_0 - 1000 edge_7_3_0_0 <= 0
 inactive_no_flow_7_4_0_0: flow_7_4_0_0 - 1000 edge_7_4_0_0 <= 0
 inactive_no_flow_7_5_0_0: flow_7_5_0_0 - 1000 edge_7_5_0_0 <= 0
 inactive_no_flow_7_6_0_0: flow_7_6_0_0 - 1000 edge_7_6_0_0 <= 0
 inactive_no_flow_7_9_0_0: flow_7_9_0_0 - 1000 edge_7_9_0_0 <= 0
 inactive_no_flow_7_10_0_0: flow_7_10_0_0 - 1000 edge_7_10_0_0 <= 0
 inactive_no_flow_7_12_0_0: flow_7_12_0_0 - 1000 edge_7_12_0_0 <= 0
 inactive_no_flow_7_13_0_0: flow_7_13_0_0 - 1000 edge_7_13_0_0 <= 0
 inactive_no_flow_7_14_0_0: flow_7_14_0_0 - 1000 edge_7_14_0_0 <= 0
 inactive_no_flow_7_15_0_0: flow_7_15_0_0 - 1000 edge_7_15_0_0 <= 0
 inactive_no_flow_7_16_0_0: flow_7_16_0_0 - 1000 edge_7_16_0_0 <= 0
 inactive_no_flow_7_17_0_0: flow_7_17_0_0 - 1000 edge_7_17_0_0 <= 0
 inactive_no_flow_7_18_0_0: flow_7_18_0_0 - 1000 edge_7_18_0_0 <= 0
 inactive_no_flow_7_19_0_0: flow_7_19_0_0 - 1000 edge_7_19_0_0 <= 0
 inactive_no_flow_9_4_0_0: flow_9_4_0_0 - 1000 edge_9_4_0_0 <= 0
 inactive_no_flow_9_6_0_0: flow_9_6_0_0 - 1000 edge_9_6_0_0 <= 0
 inactive_no_flow_9_7_0_0: flow_9_7_0_0 - 1000 edge_9_7_0_0 <= 0
 inactive_no_flow_9_10_0_0: flow_9_10_0_0 - 1000 edge_9_10_0_0 <= 0
 inactive_no_flow_9_15_0_0: flow_9_15_0_0 - 1000 edge_9_15_0_0 <= 0
 inactive_no_flow_9_16_0_0: flow_9_16_0_0 - 1000 edge_9_16_0_0 <= 0
 inactive_no_flow_9_18_0_0: flow_9_18_0_0 - 1000 edge_9_18_0_0 <= 0
 inactive_no_flow_10_1_0_0: flow_10_1_0_0 - 1000 edge_10_1_0_0 <= 0
 inactive_no_flow_10_2_0_0: flow_10_2_0_0 - 1000 edge_10_2_0_0 <= 0
 inactive_no_flow_10_3_0_0: flow_10_3_0_0 - 1000 edge_10_3_0_0 <= 0
 inactive_no_flow_10_4_0_0: flow_10_4_0_0 - 1000 edge_10_4_0_0 <= 0
 inactive_no_flow_10_5_0_0: flow_10_5_0_0 - 1000 edge_10_5_0_0 <= 0
 inactive_no_flow_10_6_0_0: flow_10_6_0_0 - 1000 edge_10_6_0_0 <= 0
 inactive_no_flow_10_7_0_0: flow_10_7_0_0 - 1000 edge_10_7_0_0 <= 0
 inactive_no_flow_10_9_0_0: flow_10_9_0_0 - 1000 edge_10_9_0_0 <= 0
 inactive_no_flow_10_12_0_0: flow_10_12_0_0 - 1000 edge_10_12_0_0 <= 0
 inactive_no_flow_10_13_0_0: flow_10_13_0_0 - 1000 edge_10_13_0_0 <= 0
 inactive_no_flow_10_14_0_0: flow_10_14_0_0 - 1000 edge_10_14_0_0 <= 0
 inactive_no_flow_10_15_0_0: flow_10_15_0_0 - 1000 edge_10_15_0_0 <= 0
 inactive_no_flow_10_16_0_0: flow_10_16_0_0 - 1000 edge_10_16_0_0 <= 0
 inactive_no_flow_10_17_0_0: flow_10_17_0_0 - 1000 edge_10_17_0_0 <= 0
 inactive_no_flow_10_18_0_0: flow_10_18_0_0 - 1000 edge_10_18_0_0 <= 0
 inactive_no_flow_10_19_0_0: flow_10_19_0_0 - 1000 edge_10_19_0_0 <= 0
 inactive_no_flow_12_10_0_0: flow_12_10_0_0 - 1000 edge_12_10_0_0 <= 0
 inactive_no_flow_12_15_0_0: flow_12_15_0_0 - 1000 edge_12_15_0_0 <= 0
 inactive_no_flow_12_16_0_0: flow_12_16_0_0 - 1000 edge_12_16_0_0 <= 0
 inactive_no_flow_12_18_0_0: flow_12_18_0_0 - 1000 edge_12_18_0_0 <= 0
 inactive_no_flow_13_2_0_0: flow_13_2_0_0 - 1000 edge_13_2_0_0 <= 0
 inactive_no_flow_13_3_0_0: flow_13_3_0_0 - 1000 edge_13_3_0_0 <= 0
 inactive_no_flow_13_6_0_0: flow_13_6_0_0 - 1000 edge_13_6_0_0 <= 0
 inactive_no_flow_13_7_0_0: flow_13_7_0_0 - 1000 edge_13_7_0_0 <= 0
 inactive_no_flow_13_10_0_0: flow_13_10_0_0 - 1000 edge_13_10_0_0 <= 0
 inactive_no_flow_13_14_0_0: flow_13_14_0_0 - 1000 edge_13_14_0_0 <= 0
 inactive_no_flow_13_15_0_0: flow_13_15_0_0 - 1000 edge_13_15_0_0 <= 0
 inactive_no_flow_13_16_0_0: flow_13_16_0_0 - 1000 edge_13_16_0_0 <= 0
 inactive_no_flow_13_17_0_0: flow_13_17_0_0 - 1000 edge_13_17_0_0 <= 0
 inactive_no_flow_13_18_0_0: flow_13_18_0_0 - 1000 edge_13_18_0_0 <= 0
 inactive_no_flow_13_19_0_0: flow_13_19_0_0 - 1000 edge_13_19_0_0 <= 0
 inactive_no_flow_14_2_0_0: flow_14_2_0_0 - 1000 edge_14_2_0_0 <= 0
 inactive_no_flow_14_3_0_0: flow_14_3_0_0 - 1000 edge_14_3_0_0 <= 0
 inactive_no_flow_14_4_0_0: flow_14_4_0_0 - 1000 edge_14_4_0_0 <= 0
 inactive_no_flow_14_5_0_0: flow_14_5_0_0 - 1000 edge_14_5_0_0 <= 0
 inactive_no_flow_14_6_0_0: flow_14_6_0_0 - 1000 edge_14_6_0_0 <= 0
 inactive_no_flow_14_7_0_0: flow_14_7_0_0 - 1000 edge_14_7_0_0 <= 0
 inactive_no_flow_14_10_0_0: flow_14_10_0_0 - 1000 edge_14_10_0_0 <= 0
 inactive_no_flow_14_13_0_0: flow_14_13_0_0 - 1000 edge_14_13_0_0 <= 0
 inactive_no_flow_14_15_0_0: flow_14_15_0_0 - 1000 edge_14_15_0_0 <= 0
 inactive_no_flow_14_16_0_0: flow_14_16_0_0 - 1000 edge_14_16_0_0 <= 0
 inactive_no_flow_14_17_0_0: flow_14_17_0_0 - 1000 edge_14_17_0_0 <= 0
 inactive_no_flow_14_18_0_0: flow_14_18_0_0 - 1000 edge_14_18_0_0 <= 0
 inactive_no_flow_14_19_0_0: flow_14_19_0_0 - 1000 edge_14_19_0_0 <= 0
 inactive_no_flow_15_2_0_0: flow_15_2_0_0 - 1000 edge_15_2_0_0 <= 0
 inactive_no_flow_15_3_0_0: flow_15_3_0_0 - 1000 edge_15_3_0_0 <= 0
 inactive_no_flow_15_4_0_0: flow_15_4_0_0 - 1000 edge_15_4_0_0 <= 0
 inactive_no_flow_15_6_0_0: flow_15_6_0_0 - 1000 edge_15_6_0_0 <= 0
 inactive_no_flow_15_7_0_0: flow_15_7_0_0 - 1000 edge_15_7_0_0 <= 0
 inactive_no_flow_15_9_0_0: flow_15_9_0_0 - 1000 edge_15_9_0_0 <= 0
 inactive_no_flow_15_10_0_0: flow_15_10_0_0 - 1000 edge_15_10_0_0 <= 0
 inactive_no_flow_15_12_0_0: flow_15_12_0_0 - 1000 edge_15_12_0_0 <= 0
 inactive_no_flow_15_13_0_0: flow_15_13_0_0 - 1000 edge_15_13_0_0 <= 0
 inactive_no_flow_15_14_0_0: flow_15_14_0_0 - 1000 edge_15_14_0_0 <= 0
 inactive_no_flow_15_16_0_0: flow_15_16_0_0 - 1000 edge_15_16_0_0 <= 0
 inactive_no_flow_15_17_0_0: flow_15_17_0_0 - 1000 edge_15_17_0_0 <= 0
 inactive_no_flow_15_18_0_0: flow_15_18_0_0 - 1000 edge_15_18_0_0 <= 0
 inactive_no_flow_15_19_0_0: flow_15_19_0_0 - 1000 edge_15_19_0_0 <= 0
 inactive_no_flow_16_1_0_0: flow_16_1_0_0 - 1000 edge_16_1_0_0 <= 0
 inactive_no_flow_16_2_0_0: flow_16_2_0_0 - 1000 edge_16_2_0_0 <= 0
 inactive_no_flow_16_3_0_0: flow_16_3_0_0 - 1000 edge_16_3_0_0 <= 0
 inactive_no_flow_16_4_0_0: flow_16_4_0_0 - 1000 edge_16_4_0_0 <= 0
 inactive_no_flow_16_5_0_0: flow_16_5_0_0 - 1000 edge_16_5_0_0 <= 0
 inactive_no_flow_16_6_0_0: flow_16_6_0_0 - 1000 edge_16_6_0_0 <= 0
 inactive_no_flow_16_7_0_0: flow_16_7_0_0 - 1000 edge_16_7_0_0 <= 0
 inactive_no_flow_16_9_0_0: flow_16_9_0_0 - 1000 edge_16_9_0_0 <= 0
 inactive_no_flow_16_10_0_0: flow_16_10_0_0 - 1000 edge_16_10_0_0 <= 0
 inactive_no_flow_16_12_0_0: flow_16_12_0_0 - 1000 edge_16_12_0_0 <= 0
 inactive_no_flow_16_13_0_0: flow_16_13_0_0 - 1000 edge_16_13_0_0 <= 0
 inactive_no_flow_16_14_0_0: flow_16_14_0_0 - 1000 edge_16_14_0_0 <= 0
 inactive_no_flow_16_15_0_0: flow_16_15_0_0 - 1000 edge_16_15_0_0 <= 0
 inactive_no_flow_16_17_0_0: flow_16_17_0_0 - 1000 edge_16_17_0_0 <= 0
 inactive_no_flow_16_18_0_0: flow_16_18_0_0 - 1000 edge_16_18_0_0 <= 0
 inactive_no_flow_16_19_0_0: flow_16_19_0_0 - 1000 edge_16_19_0_0 <= 0
 inactive_no_flow_17_14_0_0: flow_17_14_0_0 - 1000 edge_17_14_0_0 <= 0
 inactive_no_flow_17_15_0_0: flow_17_15_0_0 - 1000 edge_17_15_0_0 <= 0
 inactive_no_flow_17_16_0_0: flow_17_16_0_0 - 1000 edge_17_16_0_0 <= 0
 inactive_no_flow_17_18_0_0: flow_17_18_0_0 - 1000 edge_17_18_0_0 <= 0
 inactive_no_flow_17_19_0_0: flow_17_19_0_0 - 1000 edge_17_19_0_0 <= 0
 inactive_no_flow_18_1_0_0: flow_18_1_0_0 - 1000 edge_18_1_0_0 <= 0
 inactive_no_flow_18_2_0_0: flow_18_2_0_0 - 1000 edge_18_2_0_0 <= 0
 inactive_no_flow_18_3_0_0: flow_18_3_0_0 - 1000 edge_18_3_0_0 <= 0
 inactive_no_flow_18_4_0_0: flow_18_4_0_0 - 1000 edge_18_4_0_0 <= 0
 inactive_no_flow_18_5_0_0: flow_18_5_0_0 - 1000 edge_18_5_0_0 <= 0
 inactive_no_flow_18_6_0_0: flow_18_6_0_0 - 1000 edge_18_6_0_0 <= 0
 inactive_no_flow_18_7_0_0: flow_18_7_0_0 - 1000 edge_18_7_0_0 <= 0
 inactive_no_flow_18_9_0_0: flow_18_9_0_0 - 1000 edge_18_9_0_0 <= 0
 inactive_no_flow_18_10_0_0: flow_18_10_0_0 - 1000 edge_18_10_0_0 <= 0
 inactive_no_flow_18_12_0_0: flow_18_12_0_0 - 1000 edge_18_12_0_0 <= 0
 inactive_no_flow_18_13_0_0: flow_18_13_0_0 - 1000 edge_18_13_0_0 <= 0
 inactive_no_flow_18_14_0_0: flow_18_14_0_0 - 1000 edge_18_14_0_0 <= 0
 inactive_no_flow_18_15_0_0: flow_18_15_0_0 - 1000 edge_18_15_0_0 <= 0
 inactive_no_flow_18_16_0_0: flow_18_16_0_0 - 1000 edge_18_16_0_0 <= 0
 inactive_no_flow_18_17_0_0: flow_18_17_0_0 - 1000 edge_18_17_0_0 <= 0
 inactive_no_flow_18_19_0_0: flow_18_19_0_0 - 1000 edge_18_19_0_0 <= 0
 inactive_no_flow_19_18_0_0: flow_19_18_0_0 - 1000 edge_19_18_0_0 <= 0
Bounds
Binaries
 edge_0_1_0_0 edge_0_2_0_0 edge_0_3_0_0 edge_0_4_0_0 edge_0_5_0_0
 edge_0_6_0_0 edge_0_7_0_0 edge_0_10_0_0 edge_0_13_0_0 edge_0_14_0_0
 edge_0_15_0_0 edge_0_16_0_0 edge_0_18_0_0 edge_1_2_0_0 edge_1_3_0_0
 edge_1_4_0_0 edge_1_5_0_0 edge_1_6_0_0 edge_1_7_0_0 edge_1_10_0_0
 edge_1_12_0_0 edge_1_15_0_0 edge_1_18_0_0 edge_1_19_0_0 edge_2_1_0_0
 edge_2_2_0_0 edge_2_3_0_0 edge_2_4_0_0 edge_2_5_0_0 edge_2_6_0_0
 edge_2_7_0_0 edge_2_10_0_0 edge_2_12_0_0 edge_2_13_0_0 edge_2_14_0_0
 edge_2_15_0_0 edge_2_16_0_0 edge_2_17_0_0 edge_2_18_0_0 edge_2_19_0_0
 edge_3_1_0_0 edge_3_2_0_0 edge_3_4_0_0 edge_3_5_0_0 edge_3_6_0_0
 edge_3_7_0_0 edge_3_9_0_0 edge_3_10_0_0 edge_3_12_0_0 edge_3_13_0_0
 edge_3_14_0_0 edge_3_15_0_0 edge_3_16_0_0 edge_3_17_0_0 edge_3_18_0_0
 edge_3_19_0_0 edge_4_1_0_0 edge_4_2_0_0 edge_4_3_0_0 edge_4_5_0_0
 edge_4_6_0_0 edge_4_7_0_0 edge_4_10_0_0 edge_4_12_0_0 edge_4_14_0_0
 edge_4_15_0_0 edge_4_16_0_0 edge_4_18_0_0 edge_4_19_0_0 edge_5_1_0_0
 edge_5_2_0_0 edge_5_3_0_0 edge_5_4_0_0 edge_5_6_0_0 edge_5_7_0_0
 edge_5_10_0_0 edge_5_12_0_0 edge_5_14_0_0 edge_5_15_0_0 edge_5_16_0_0
 edge_5_17_0_0 edge_5_18_0_0 edge_5_19_0_0 edge_6_3_0_0 edge_6_4_0_0
 edge_6_5_0_0 edge_6_7_0_0 edge_7_1_0_0 edge_7_2_0_0 edge_7_3_0_0
 edge_7_4_0_0 edge_7_5_0_0 edge_7_6_0_0 edge_7_9_0_0 edge_7_10_0_0
 edge_7_12_0_0 edge_7_13_0_0 edge_7_14_0_0 edge_7_15_0_0 edge_7_16_0_0
 edge_7_17_0_0 edge_7_18_0_0 edge_7_19_0_0 edge_9_4_0_0 edge_9_6_0_0
 edge_9_7_0_0 edge_9_10_0_0 edge_9_15_0_0 edge_9_16_0_0 edge_9_18_0_0
 edge_10_1_0_0 edge_10_2_0_0 edge_10_3_0_0 edge_10_4_0_0 edge_10_5_0_0
 edge_10_6_0_0 edge_10_7_0_0 edge_10_9_0_0 edge_10_12_0_0 edge_10_13_0_0
 edge_10_14_0_0 edge_10_15_0_0 edge_10_16_0_0 edge_10_17_0_0 edge_10_18_0_0
 edge_10_19_0_0 edge_12_10_0_0 edge_12_15_0_0 edge_12_16_0_0 edge_12_18_0_0
 edge_13_2_0_0 edge_13_3_0_0 edge_13_6_0_0 edge_13_7_0_0 edge_13_10_0_0
 edge_13_14_0_0 edge_13_15_0_0 edge_13_16_0_0 edge_13_17_0_0 edge_13_18_0_0
 edge_13_19_0_0 edge_14_2_0_0 edge_14_3_0_0 edge_14_4_0_0 edge_14_5_0_0
 edge_14_6_0_0 edge_14_7_0_0 edge_14_10_0_0 edge_14_13_0_0 edge_14_15_0_0
 edge_14_16_0_0 edge_14_17_0_0 edge_14_18_0_0 edge_14_19_0_0 edge_15_2_0_0
 edge_15_3_0_0 edge_15_4_0_0 edge_15_6_0_0 edge_15_7_0_0 edge_15_9_0_0
 edge_15_10_0_0 edge_15_12_0_0 edge_15_13_0_0 edge_15_14_0_0 edge_15_16_0_0
 edge_15_17_0_0 edge_15_18_0_0 edge_15_19_0_0 edge_16_1_0_0 edge_16_2_0_0
 edge_16_3_0_0 edge_16_4_0_0 edge_16_5_0_0 edge_16_6_0_0 edge_16_7_0_0
 edge_16_9_0_0 edge_16_10_0_0 edge_16_12_0_0 edge_16_13_0_0 edge_16_14_0_0
 edge_16_15_0_0 edge_16_17_0_0 edge_16_18_0_0 edge_16_19_0_0 edge_17_14_0_0
 edge_17_15_0_0 edge_17_16_0_0 edge_17_18_0_0 edge_17_19_0_0 edge_18_1_0_0
 edge_18_2_0_0 edge_18_3_0_0 edge_18_4_0_0 edge_18_5_0_0 edge_18_6_0_0
 edge_18_7_0_0 edge_18_9_0_0 edge_18_10_0_0 edge_18_12_0_0 edge_18_13_0_0
 edge_18_14_0_0 edge_18_15_0_0 edge_18_16_0_0 edge_18_17_0_0 edge_18_19_0_0
 edge_19_18_0_0
End
